# May need to change NCORE, KPAR, ENCUT, POTIM = variable parameters
GGA = MK
PARAM1 = 0.1234
PARAM2 = 1.0
LUSE_VDW = True
AGGAC = 0.0
NCORE = 12
KPAR = 2
ENCUT = 850
#POTIM = 0.5
ISPIN = 1
LSUBROT = True
ICORELEVEL = 0
ALGO = Normal
ADDGRID = True
EDIFF = 1e-06
EDIFFG = -0.005
IBRION = 2
ICHARG = 1
ISIF = 2
ISMEAR = 0
LASPH = True
LORBIT = 11
LREAL = False
LVHAR = True
LWAVE = True
NEDOS = 2000
NELM = 100
NSW = 200
PREC = Accurate
SIGMA = 0.05
